 vasp
 1.00000000
  5.416500    0.000000    0.000000
 -2.708250    4.690826    0.000000
  0.000000    0.000000   12.924700
 La Ni   O
   6    6     17
 Direct
  0.000000    0.000000    0.250000
  0.000000    0.000000    0.750000
  0.666670    0.333330    0.583330
  0.666670    0.333330    0.083330
  0.333330    0.666670    0.916670
  0.333330    0.666670    0.416670
  0.000000    0.000000    0.000000
  0.000000    0.000000    0.500000
  0.666670    0.333330    0.333330
  0.666670    0.333330    0.833330
  0.333330    0.666670    0.666670
  0.333330    0.666670    0.166670
  0.000000    0.448057    0.250000
  0.551943    0.551943    0.250000
  0.551943    0.000000    0.750000
  0.000000    0.551943    0.750000
  0.448057    0.448057    0.750000
  0.114727    0.333330    0.583330
  0.666670    0.781387    0.583330
  0.218613    0.885273    0.583330
  0.218613    0.333330    0.083330
  0.666670    0.885273    0.083330
  0.114727    0.781387    0.083330
  0.781387    0.666670    0.916670
  0.333330    0.114727    0.916670
  0.885273    0.218613    0.916670
  0.885273    0.666670    0.416670
  0.333330    0.218613    0.416670
  0.781387    0.114727    0.416670
